//This is the obj fxn for diet problem:
max: 7.0*x0 + 12.0*x1 + 7.0*x2 + 7.0*x3 + 5.0*x4 + 6.5*x5 + 9.99*x6 + 5.51*x7 + 11.0*x8 + 11.0*x9 + 11.0*x10 + 6.79*x11 + 6.79*x12 + 6.5*x13 + 2.5*x14 + 2.0*x15 + 5.0*x16 + 7.0*x17 + 5.0*x18 + 4.0*x19 + 3.0*x20 + 12.0*x21 + 9.0*x22 + 9.0*x23 + 9.0*x24 + 10.0*x25 + 12.0*x26 + 11.0*x27 + 11.0*x28 + 12.0*x29 + 15.0*x30 + 8.0*x31 + 19.5*x32 + 22.0*x33 + 9.0*x34 + 14.0*x35 + 6.99*x36 + 6.99*x37 + 6.99*x38 + 6.99*x39 + 6.0*x40 + 6.0*x41 + 6.0*x42 + 5.5*x43 + 3.0*x44 + 12.0*x45 + 9.0*x46 + 9.0*x47 + 9.0*x48 + 10.0*x49 + 12.0*x50 + 11.0*x51 + 11.0*x52 + 12.0*x53 + 15.0*x54 + 8.0*x55 + 19.5*x56 + 22.0*x57 + 9.0*x58 + 14.0*x59 + 28.0*x60 + 14.0*x61 + 5.99*x62 + 5.99*x63 + 2.74*x64 + 6.19*x65 + 7.69*x66 + 5.69*x67 + 6.69*x68 + 5.69*x69 + 4.49*x70 + 5.59*x71 + 6.69*x72 + 3.0*x73 + 3.5*x74 + 3.75*x75 + 4.0*x76 + 3.95*x77 + 4.59*x78 + 4.49*x79 + 6.69*x80 + 2.75*x81 + 5.49*x82 + 4.29*x83 + 3.69*x84 + 9.99*x85 + 4.29*x86 + 3.49*x87 + 2.59*x88 + 1.25*x89 + 2.89*x90 + 2.89*x91 + 7.09*x92 + 5.99*x93 + 5.59*x94 + 5.5*x95 + 2.1*x96 + 4.69*x97 + 2.89*x98 + 0.59*x99 + 2.99*x100 + 2.59*x101 + 4.69*x102 + 4.5*x103 + 4.69*x104 + 2.89*x105 + 4.09*x106 + 2.95*x107 + 2.09*x108 + 2.99*x109 + 2.49*x110 + 1.99*x111 + 1.99*x112 + 2.29*x113 + 2.29*x114 + 1.79*x115 + 3.59*x116 + 3.69*x117 + 2.29*x118 + 4.19*x119 + 2.29*x120 + 3.89*x121 + 2.99*x122 + 3.99*x123 + 3.99*x124 + 1.29*x125 + 3.19*x126 + 2.99*x127 + 0.69*x128 + 1.09*x129 + 0.89*x130 + 0.59*x131 + 1.99*x132 + 1.89*x133 + 2.49*x134 + 3.99*x135 + 6.99*x136 + 2.99*x137 + 0.29*x138 + 0.29*x139 + 1.69*x140 + 0.59*x141 + 1.09*x142 + 3.45*x143 + 4.45*x144 + 2.5*x145 + 3.95*x146 + 4.75*x147 + 4.65*x148 + 5.12*x149 + 4.45*x150 + 4.75*x151 + 3.95*x152 + 4.75*x153 + 2.45*x154 + 3.85*x155 + 5.05*x156 + 4.45*x157 + 3.45*x158 + 3.95*x159 + 3.75*x160 + 3.95*x161 + 4.15*x162 + 4.95*x163 + 5.15*x164 + 5.95*x165 + 6.75*x166 + 6.75*x167 + 6.75*x168 + 8.45*x169 + 8.45*x170 + 6.25*x171 + 5.65*x172 + 3.75*x173 + 3.75*x174 + 2.45*x175 + 2.95*x176 + 3.75*x177 + 2.0*x178 + 2.65*x179;
//These are the constraints:
7.0*x0 + 12.0*x1 + 7.0*x2 + 7.0*x3 + 5.0*x4 + 6.5*x5 + 9.99*x6 + 5.51*x7 + 11.0*x8 + 11.0*x9 + 11.0*x10 + 6.79*x11 + 6.79*x12 + 6.5*x13 + 2.5*x14 + 2.0*x15 + 5.0*x16 + 7.0*x17 + 5.0*x18 + 4.0*x19 + 3.0*x20 + 12.0*x21 + 9.0*x22 + 9.0*x23 + 9.0*x24 + 10.0*x25 + 12.0*x26 + 11.0*x27 + 11.0*x28 + 12.0*x29 + 15.0*x30 + 8.0*x31 + 19.5*x32 + 22.0*x33 + 9.0*x34 + 14.0*x35 + 6.99*x36 + 6.99*x37 + 6.99*x38 + 6.99*x39 + 6.0*x40 + 6.0*x41 + 6.0*x42 + 5.5*x43 + 3.0*x44 + 12.0*x45 + 9.0*x46 + 9.0*x47 + 9.0*x48 + 10.0*x49 + 12.0*x50 + 11.0*x51 + 11.0*x52 + 12.0*x53 + 15.0*x54 + 8.0*x55 + 19.5*x56 + 22.0*x57 + 9.0*x58 + 14.0*x59 + 28.0*x60 + 14.0*x61 + 5.99*x62 + 5.99*x63 + 2.74*x64 + 6.19*x65 + 7.69*x66 + 5.69*x67 + 6.69*x68 + 5.69*x69 + 4.49*x70 + 5.59*x71 + 6.69*x72 + 3.0*x73 + 3.5*x74 + 3.75*x75 + 4.0*x76 + 3.95*x77 + 4.59*x78 + 4.49*x79 + 6.69*x80 + 2.75*x81 + 5.49*x82 + 4.29*x83 + 3.69*x84 + 9.99*x85 + 4.29*x86 + 3.49*x87 + 2.59*x88 + 1.25*x89 + 2.89*x90 + 2.89*x91 + 7.09*x92 + 5.99*x93 + 5.59*x94 + 5.5*x95 + 2.1*x96 + 4.69*x97 + 2.89*x98 + 0.59*x99 + 2.99*x100 + 2.59*x101 + 4.69*x102 + 4.5*x103 + 4.69*x104 + 2.89*x105 + 4.09*x106 + 2.95*x107 + 2.09*x108 + 2.99*x109 + 2.49*x110 + 1.99*x111 + 1.99*x112 + 2.29*x113 + 2.29*x114 + 1.79*x115 + 3.59*x116 + 3.69*x117 + 2.29*x118 + 4.19*x119 + 2.29*x120 + 3.89*x121 + 2.99*x122 + 3.99*x123 + 3.99*x124 + 1.29*x125 + 3.19*x126 + 2.99*x127 + 0.69*x128 + 1.09*x129 + 0.89*x130 + 0.59*x131 + 1.99*x132 + 1.89*x133 + 2.49*x134 + 3.99*x135 + 6.99*x136 + 2.99*x137 + 0.29*x138 + 0.29*x139 + 1.69*x140 + 0.59*x141 + 1.09*x142 + 3.45*x143 + 4.45*x144 + 2.5*x145 + 3.95*x146 + 4.75*x147 + 4.65*x148 + 5.12*x149 + 4.45*x150 + 4.75*x151 + 3.95*x152 + 4.75*x153 + 2.45*x154 + 3.85*x155 + 5.05*x156 + 4.45*x157 + 3.45*x158 + 3.95*x159 + 3.75*x160 + 3.95*x161 + 4.15*x162 + 4.95*x163 + 5.15*x164 + 5.95*x165 + 6.75*x166 + 6.75*x167 + 6.75*x168 + 8.45*x169 + 8.45*x170 + 6.25*x171 + 5.65*x172 + 3.75*x173 + 3.75*x174 + 2.45*x175 + 2.95*x176 + 3.75*x177 + 2.0*x178 + 2.65*x179<= 71.42857142857143;
 + 510.0*x77 + 510.0*x78 + 384.0*x79 + 408.0*x80 + 224.0*x81 + 363.0*x82 + 224.0*x83 + 210.0*x84 + 870.0*x85 + 180.0*x86 + 224.0*x87 + 98.0*x88 + 105.0*x89 + 101.5*x90 + 120.0*x91 + 84.0*x92 + 440.0*x93 + 327.5*x94 + 240.0*x95 + 410.0*x96 + 196.0*x97 + 75.0*x98 + 35.0*x99 + 93.0*x100 + 80.0*x101 + 680.0*x102 + 340.0*x103 + 462.0*x104 + 420.0*x105 + 434.0*x106 + 1920.0*x107 + 150.0*x108 + 150.0*x109 + 360.0*x110 + 94.0*x111 + 68.0*x112 + 591.0*x113 + 591.0*x114 + 720.0*x115 + 480.0*x116 + 281.0*x117 + 480.0*x118 + 355.0*x119 + 355.0*x120 + 480.0*x121 + 591.0*x122 + 450.0*x123 + 450.0*x124 + 300.0*x125 + 300.0*x126 + 500.0*x127 + 118.0*x128 + 123.0*x129 + 140.0*x130 + 173.0*x131 + 182.0*x132 + 123.0*x133 + 49.0*x134 + 90.0*x135 + 74.0*x136 + 20.0*x137 + 84.0*x138 + 67.0*x139 + 201.0*x140 + 69.0*x141 + 201.0*x142 + 470.0*x143 + 470.0*x144 + 470.0*x145 + 470.0*x146 + 470.0*x147 + 470.0*x148 + 470.0*x149 + 470.0*x150 + 470.0*x151 + 470.0*x152 + 470.0*x153 + 470.0*x154 + 470.0*x155 + 470.0*x156 + 470.0*x157 + 470.0*x158 + 470.0*x159 + 148.0*x160 + 116.0*x161 + 159.0*x162 + 132.0*x163 + 148.0*x164 + 143.0*x165 + 176.0*x166 + 201.0*x167 + 423.0*x169 + 385.0*x170 + 250.0*x171 + 210.0*x172 + 162.0*x173 + 150.0*x175 + 80.0*x176 + 102.0*x177 + 100.0*x178 + 110.0*x179<= 4019.9999999999995;
540.0*x0 + 189.0*x1 + 351.0*x2 + 360.0*x3 + 219.0*x4 + 190.0*x5 + 420.0*x6 + 553.0*x7 + 965.0*x8 + 808.0*x9 + 800.0*x10 + 616.0*x11 + 418.0*x12 + 300.0*x13 + 103.0*x14 + 144.0*x15 + 200.0*x16 + 502.0*x17 + 170.0*x18 + 365.0*x19 + 24.0*x20 + 586.0*x21 + 160.0*x22 + 481.0*x23 + 134.0*x24 + 305.0*x25 + 750.0*x26 + 377.0*x27 + 88.0*x28 + 688.0*x29 + 470.0*x30 + 52.0*x31 + 1190.0*x32 + 920.0*x33 + 414.0*x34 + 552.0*x35 + 630.0*x36 + 640.0*x37 + 630.0*x38 + 400.0*x39 + 570.0*x40 + 430.0*x41 + 566.0*x42 + 410.0*x43 + 24.0*x44 + 586.0*x45 + 160.0*x46 + 481.0*x47 + 134.0*x48 + 305.0*x49 + 750.0*x50 + 377.0*x51 + 88.0*x52 + 688.0*x53 + 470.0*x54 + 52.0*x55 + 1462.0*x56 + 920.0*x57 + 414.0*x58 + 552.0*x59 + 614.0*x60 + 318.0*x61 + 400.0*x62 + 570.0*x63 + 591.0*x64 + 493.0*x65 + 835.0*x66 + 871.0*x67 + 891.0*x68 + 436.0*x69 + 360.0*x70 + 540.0*x71 + 720.0*x72 + 350.0*x73 + 420.0*x74 + 440.0*x75 + 480.0*x76 + 1380.0*x77 + 1380.0*x78 + 1600.0*x79 + 1920.0*x80 + 980.0*x81 + 1760.0*x82 + 980.0*x83 + 1050.0*x84 + 4060.0*x85 + 1440.0*x86 + 1280.0*x87 + 560.0*x88 + 385.0*x89 + 455.0*x90 + 560.0*x91 + 210.0*x92 + 2244.0*x93 + 890.0*x94 + 1140.0*x95 + 99.0*x96 + 1050.0*x97 + 340.0*x98 + 380.0*x99 + 390.0*x100 + 280.0*x101 + 1700.0*x102 + 850.0*x103 + 2660.0*x104 + 2250.0*x105 + 210.0*x106 + 1280.0*x107 + 110.0*x108 + 140.0*x109 + 1170.0*x110 + 440.0*x111 + 250.0*x112 + 240.0*x114 + 160.0*x115 + 200.0*x117 + 190.0*x118 + 160.0*x119 + 170.0*x120 + 90.0*x121 + 260.0*x123 + 330.0*x124 + 140.0*x126 + 100.0*x127 + 105.0*x128 + 52.0*x129 + 69.0*x130 + 161.0*x131 + 95.0*x132 + 22.0*x133 + 34.0*x134 + 29.0*x135 + 35.0*x136 + 20.0*x137 + 24.0*x138 + 20.0*x139 + 322.0*x140 + 42.0*x141 + 30.0*x142 + 15.0*x143 + 120.0*x144 + 80.0*x145 + 5.0*x146 + 5.0*x147 + 250.0*x148 + 220.0*x149 + 360.0*x150 + 420.0*x151 + 230.0*x152 + 410.0*x153 + 45.0*x154 + 90.0*x155 + 140.0*x156 + 90.0*x157 + 400.0*x158 + 440.0*x159 + 480.0*x160 + 370.0*x161 + 280.0*x162 + 450.0*x163 + 520.0*x164 + 540.0*x165 + 490.0*x166 + 620.0*x167 + 500.0*x168 + 690.0*x169 + 570.0*x170 + 470.0*x171 + 520.0*x172 + 330.0*x173 + 240.0*x174 + 120.0*x175 + 340.0*x176 + 320.0*x177 + 290.0*x178 + 360.0*x179<= 2000;
40.0*x0 + 11.0*x1 + 25.6*x2 + 17.0*x3 + 11.0*x4 + 2.8*x5 + 14.0*x6 + 15.2*x7 + 27.6*x8 + 13.4*x9 + 14.0*x10 + 29.0*x11 + 11.0*x12 + 20.0*x13 + 2.9*x14 + 2.2*x15 + 14.0*x16 + 27.0*x17 + 1.1*x18 + 17.0*x19 + 0.4*x20 + 43.0*x21 + 3.7*x22 + 40.0*x23 + 10.0*x24 + 13.0*x25 + 31.0*x26 + 21.0*x27 + 9.3*x28 + 26.0*x29 + 28.0*x30 + 2.6*x31 + 72.0*x32 + 64.0*x33 + 24.0*x34 + 32.0*x35 + 32.0*x36 + 28.0*x37 + 34.0*x38 + 16.0*x39 + 27.0*x40 + 29.0*x41 + 34.0*x42 + 14.0*x43 + 0.4*x44 + 43.0*x45 + 3.7*x46 + 40.0*x47 + 10.0*x48 + 13.0*x49 + 31.0*x50 + 21.0*x51 + 9.3*x52 + 26.0*x53 + 28.0*x54 + 2.6*x55 + 51.0*x56 + 64.0*x57 + 24.0*x58 + 32.0*x59 + 41.0*x60 + 12.0*x61 + 4.0*x62 + 24.0*x63 + 25.8*x64 + 15.3*x65 + 29.5*x66 + 43.6*x67 + 44.3*x68 + 9.1*x69 + 25.0*x70 + 37.5*x71 + 50.0*x72 + 12.0*x73 + 19.0*x74 + 19.0*x75 + 24.0*x76 + 9.0*x77 + 9.0*x78 + 52.0*x79 + 84.0*x80 + 49.0*x81 + 88.0*x82 + 21.0*x83 + 56.0*x84 + 145.0*x85 + 90.0*x86 + 80.0*x87 + 35.0*x88 + 12.25*x90 + 20.0*x91 + 1.5*x92 + 110.0*x93 + 55.0*x94 + 66.0*x95 + 16.0*x96 + 63.0*x97 + 14.0*x98 + 14.0*x99 + 9.0*x100 + 12.0*x101 + 25.5*x102 + 224.0*x104 + 150.0*x105 + 64.0*x107 + 3.5*x109 + 22.0*x111 + 5.0*x112 + 3.0*x117 + 7.0*x124 + 0.4*x128 + 0.2*x129 + 0.2*x130 + 0.2*x131 + 0.3*x132 + 0.3*x133 + 0.1*x134 + 0.3*x135 + 0.1*x136 + 0.3*x138 + 0.1*x139 + 29.0*x140 + 0.4*x141 + 0.2*x142 + 4.0*x144 + 7.0*x148 + 11.0*x149 + 15.0*x150 + 15.0*x151 + 3.0*x152 + 15.0*x153 + 2.5*x156 + 16.0*x158 + 19.0*x159 + 29.0*x160 + 18.0*x161 + 8.0*x162 + 22.0*x163 + 28.0*x164 + 29.0*x165 + 24.0*x166 + 26.0*x167 + 18.0*x168 + 31.0*x169 + 23.0*x170 + 25.0*x171 + 26.0*x172 + 12.0*x173 + 2.5*x174 + 20.0*x176 + 17.0*x177 + 4.0*x178 + 15.0*x179<= 65;
15.0*x0 + 16.0*x1 + 8.1*x2 + 8.0*x3 + 5.2*x4 + 0.8*x5 + 5.0*x6 + 2.1*x7 + 8.4*x8 + 3.0*x9 + 3.6*x10 + 6.2*x11 + 3.5*x12 + 2.4*x13 + 1.1*x14 + 0.5*x15 + 6.0*x16 + 4.8*x17 + 2.7*x19 + 0.1*x20 + 6.8*x21 + 0.6*x22 + 8.2*x23 + 3.7*x24 + 6.4*x25 + 11.0*x26 + 5.7*x27 + 3.2*x28 + 3.0*x29 + 5.4*x30 + 1.3*x31 + 24.0*x32 + 28.8*x33 + 9.6*x34 + 12.8*x35 + 14.0*x36 + 9.8*x37 + 7.7*x38 + 2.7*x39 + 14.0*x40 + 17.0*x41 + 11.0*x42 + 3.7*x43 + 0.1*x44 + 6.8*x45 + 0.6*x46 + 8.2*x47 + 3.7*x48 + 6.4*x49 + 11.0*x50 + 5.7*x51 + 3.2*x52 + 3.0*x53 + 5.4*x54 + 1.3*x55 + 17.5*x56 + 28.8*x57 + 9.6*x58 + 12.8*x59 + 16.0*x60 + 3.5*x61 + x62 + 8.0*x63 + 4.5*x64 + 6.8*x65 + 13.6*x66 + 16.4*x67 + 9.4*x68 + x69 + 15.0*x70 + 22.5*x71 + 30.0*x72 + 9.0*x73 + 13.0*x74 + 10.0*x75 + 12.0*x76 + 18.0*x79 + 24.0*x80 + 21.0*x81 + 27.5*x82 + 10.5*x84 + 29.0*x85 + 13.5*x86 + 12.0*x87 + 5.25*x88 + 1.75*x90 + 4.0*x91 + 105.6*x93 + 34.0*x94 + 42.0*x95 + 7.0*x96 + 24.5*x97 + 12.0*x98 + 6.0*x99 + 4.5*x100 + 4.5*x101 + 49.0*x104 + 15.0*x105 + 40.0*x107 + 8.0*x111 + 0.5*x112 + 2.0*x117 + 1.5*x124 + 0.1*x128 + 0.1*x131 + 0.1*x132 + 4.3*x140 + 0.1*x142 + 2.0*x144 + 4.5*x148 + 7.0*x149 + 9.0*x150 + 9.0*x151 + 2.0*x152 + 9.0*x153 + 2.5*x156 + 10.0*x158 + 12.0*x159 + 10.0*x160 + 7.0*x161 + 3.0*x162 + 9.0*x163 + 13.0*x164 + 16.0*x165 + 10.0*x166 + 8.0*x167 + 6.0*x168 + 10.0*x169 + 10.0*x170 + 7.0*x171 + 7.0*x172 + 6.0*x173 + 12.0*x176 + 9.0*x177 + x178 + 3.0*x179<= 20;
497.0*x0 + 402.0*x2 + 60.0*x3 + 129.0*x4 + 6.6*x5 + 245.0*x6 + 164.0*x8 + 157.0*x9 + 122.0*x10 + 126.0*x11 + 87.0*x12 + 7.5*x14 + 26.0*x16 + 159.0*x21 + 36.0*x23 + 63.0*x24 + 53.0*x25 + 188.0*x26 + 126.0*x27 + 14.0*x28 + 148.0*x29 + 143.0*x30 + 5.1*x31 + 203.0*x32 + 264.0*x33 + 156.0*x34 + 208.0*x35 + 107.0*x36 + 86.0*x37 + 102.0*x38 + 86.0*x40 + 88.0*x41 + 101.0*x42 + 50.0*x43 + 159.0*x45 + 36.0*x47 + 63.0*x48 + 53.0*x49 + 188.0*x50 + 126.0*x51 + 14.0*x52 + 148.0*x53 + 143.0*x54 + 5.1*x55 + 608.0*x56 + 264.0*x57 + 156.0*x58 + 208.0*x59 + 214.0*x60 + 11.0*x61 + 147.0*x65 + 294.0*x66 + 120.0*x67 + 85.0*x68 + 115.0*x70 + 172.5*x71 + 230.0*x72 + 30.0*x73 + 50.0*x74 + 55.0*x75 + 45.0*x76 + 290.0*x85 + 75.0*x92 + 250.0*x94 + 270.0*x95 + 30.0*x96 + 5.0*x98 + 20.0*x101 + 280.0*x107 + 5.0*x108 + 10.0*x111 + 15.0*x117 + 10.0*x124 + 35.0*x126 + 15.0*x144 + 25.0*x148 + 35.0*x149 + 50.0*x150 + 45.0*x151 + 10.0*x152 + 50.0*x153 + 55.0*x158 + 55.0*x159 + 165.0*x160 + 170.0*x161 + 20.0*x162 + 85.0*x163 + 220.0*x164 + 75.0*x165 + 80.0*x166 + 110.0*x167 + 65.0*x168 + 65.0*x169 + 90.0*x170 + 385.0*x171 + 25.0*x172 + 65.0*x173 + 5.0*x174 + 10.0*x175 + 50.0*x176 + 65.0*x177 + 5.0*x178 + 50.0*x179<= 300;
828.0*x0 + 439.0*x1 + 771.0*x2 + 750.0*x3 + 237.0*x4 + 317.0*x5 + 700.0*x6 + 357.0*x7 + 1025.0*x8 + 1040.0*x9 + 3766.0*x10 + 1178.0*x11 + 1658.0*x12 + 711.0*x13 + 258.0*x14 + 298.0*x15 + 355.0*x16 + 976.0*x17 + 910.0*x18 + 246.0*x19 + 39.0*x20 + 561.0*x21 + 605.0*x22 + 1152.0*x23 + 247.0*x24 + 822.0*x25 + 1330.0*x26 + 118.0*x27 + 345.0*x28 + 1403.0*x29 + 138.0*x30 + 750.0*x31 + 646.0*x32 + 196.0*x33 + 96.0*x34 + 128.0*x35 + 590.0*x36 + 1333.0*x37 + 1200.0*x38 + 718.0*x39 + 769.0*x40 + 1766.0*x41 + 1973.0*x42 + 1479.0*x43 + 39.0*x44 + 561.0*x45 + 605.0*x46 + 1152.0*x47 + 247.0*x48 + 822.0*x49 + 1330.0*x50 + 118.0*x51 + 345.0*x52 + 1403.0*x53 + 138.0*x54 + 750.0*x55 + 647.0*x56 + 196.0*x57 + 96.0*x58 + 128.0*x59 + 115.0*x60 + 244.0*x61 + 302.0*x62 + 616.0*x63 + 597.0*x64 + 938.0*x65 + 1328.0*x66 + 1913.0*x67 + 1643.0*x68 + 1133.0*x69 + 720.0*x70 + 1080.0*x71 + 1440.0*x72 + 710.0*x73 + 990.0*x74 + 1040.0*x75 + 830.0*x76 + 2100.0*x77 + 1980.0*x78 + 1360.0*x79 + 1620.0*x80 + 2170.0*x81 + 1210.0*x82 + 1890.0*x83 + 1610.0*x84 + 7250.0*x85 + 1350.0*x86 + 1360.0*x87 + 875.0*x88 + 875.0*x89 + 805.0*x90 + 1320.0*x91 + 1800.0*x92 + 66.0*x93 + 200.0*x94 + 510.0*x95 + 470.0*x96 + 840.0*x97 + 120.0*x98 + 1620.0*x99 + 150.0*x101 + 2210.0*x102 + 1960.0*x104 + 2400.0*x105 + 2940.0*x106 + 1000.0*x107 + 60.0*x108 + 90.0*x109 + 180.0*x110 + 230.0*x111 + 180.0*x112 + 70.0*x113 + 75.0*x114 + 320.0*x116 + 100.0*x117 + 10.0*x118 + 150.0*x119 + 25.0*x120 + 135.0*x121 + 10.0*x123 + 230.0*x124 + 25.0*x125 + 1.2*x128 + 1.4*x130 + 17.0*x131 + 1.8*x132 + 6.2*x133 + x134 + 0.9*x135 + 0.7*x136 + 1.7*x138 + 1.3*x139 + 14.0*x140 + 2.1*x141 + 4.0*x142 + 10.0*x143 + 100.0*x144 + 10.0*x145 + 15.0*x146 + 10.0*x147 + 150.0*x148 + 150.0*x149 + 150.0*x150 + 230.0*x151 + 230.0*x152 + 10.0*x154 + 15.0*x155 + 65.0*x156 + 15.0*x157 + 170.0*x158 + 260.0*x159 + 880.0*x160 + 780.0*x161 + 830.0*x162 + 1160.0*x163 + 940.0*x164 + 1060.0*x165 + 1250.0*x166 + 1460.0*x167 + 900.0*x168 + 1000.0*x169 + 1620.0*x170 + 540.0*x171 + 570.0*x172 + 90.0*x173 + 125.0*x174 + 55.0*x175 + 280.0*x176 + 490.0*x177 + 450.0*x178 + 270.0*x179<= 2400;
0.7*x0 + 20.0*x1 + 1.4*x2 + 38.0*x3 + 23.0*x4 + 32.0*x5 + 34.0*x6 + 12.3*x7 + 74.1*x8 + 66.8*x9 + 56.9*x10 + 46.0*x11 + 47.0*x12 + 15.0*x13 + 16.0*x14 + 26.0*x15 + 12.0*x16 + 57.0*x17 + 36.0*x18 + 48.0*x19 + 4.4*x20 + 26.0*x21 + 25.0*x22 + 23.0*x23 + 3.2*x24 + 32.0*x25 + 81.0*x26 + 4.4*x27 + 0.7*x28 + 71.0*x29 + 6.4*x31 + 74.0*x32 + 419.0*x36 + 523.0*x37 + 704.0*x38 + 696.0*x39 + 1327.0*x40 + 577.0*x41 + 888.0*x42 + 500.0*x43 + 4.4*x44 + 26.0*x45 + 25.0*x46 + 23.0*x47 + 3.2*x48 + 32.0*x49 + 81.0*x50 + 4.4*x51 + 0.7*x52 + 71.0*x53 + 6.4*x55 + 209.5*x56 + 578.0*x61 + 14.0*x62 + 11.0*x63 + 9.0*x64 + 56.4*x65 + 105.3*x66 + 46.7*x67 + 41.4*x68 + 13.5*x69 + 17.0*x70 + 25.5*x71 + 34.0*x72 + 18.0*x73 + 21.0*x74 + 23.0*x75 + 20.0*x76 + 270.0*x77 + 276.0*x78 + 272.0*x79 + 300.0*x80 + 140.0*x81 + 242.0*x82 + 168.0*x83 + 119.0*x84 + 580.0*x85 + 135.0*x86 + 120.0*x87 + 52.5*x88 + 87.5*x89 + 80.5*x90 + 80.0*x91 + 21.0*x92 + 286.0*x93 + 84.0*x94 + 126.0*x95 + 65.0*x96 + 105.0*x97 + 49.0*x98 + 53.0*x99 + 75.0*x100 + 37.0*x101 + 323.0*x102 + 221.0*x103 + 112.0*x104 + 240.0*x105 + 42.0*x106 + 104.0*x107 + 15.0*x108 + 21.0*x109 + 270.0*x110 + 58.0*x111 + 44.0*x112 + 65.0*x114 + 42.0*x115 + 2.0*x116 + 37.0*x117 + 45.0*x118 + 41.0*x119 + 40.0*x120 + 22.0*x121 + 65.0*x123 + 35.0*x124 + 34.0*x126 + 25.0*x127 + 27.0*x128 + 13.0*x129 + 18.0*x130 + 37.0*x131 + 25.0*x132 + 4.8*x133 + 8.9*x134 + 6.9*x135 + 8.9*x136 + 2.0*x137 + 7.8*x138 + 7.1*x139 + 17.0*x140 + 10.0*x141 + 7.3*x142 + 2.0*x143 + 12.0*x144 + 20.0*x145 + 35.0*x148 + 18.0*x149 + 44.0*x150 + 57.0*x151 + 46.0*x152 + 63.0*x153 + 11.0*x154 + 23.0*x155 + 27.0*x156 + 21.0*x157 + 50.0*x158 + 55.0*x159 + 34.0*x160 + 33.0*x161 + 34.0*x162 + 35.0*x163 + 42.0*x164 + 47.0*x165 + 42.0*x166 + 65.0*x167 + 58.0*x168 + 77.0*x169 + 54.0*x170 + 40.0*x171 + 54.0*x172 + 42.0*x173 + 39.0*x174 + 12.0*x175 + 38.0*x176 + 28.0*x177 + 53.0*x178 + 52.0*x179<= 300;
42.0*x0 + 3.8*x1 + 24.6*x2 + 14.0*x3 + 7.3*x4 + 7.6*x5 + 39.0*x6 + 108.0*x10 + 46.0*x11 + 33.0*x12 + 19.0*x13 + 2.8*x14 + 4.5*x15 + 6.0*x16 + 7.0*x17 + 3.5*x18 + 4.0*x19 + 1.9*x20 + 25.0*x21 + 7.0*x22 + 10.0*x23 + 6.8*x24 + 16.0*x25 + 38.0*x26 + 40.0*x27 + 0.5*x28 + 43.0*x29 + 50.0*x30 + 2.6*x31 + 62.0*x32 + 84.0*x33 + 46.0*x34 + 61.3*x35 + 47.0*x36 + 65.0*x37 + 42.0*x38 + 53.0*x39 + 52.0*x40 + 23.0*x41 + 29.0*x42 + 48.0*x43 + 1.9*x44 + 25.0*x45 + 7.0*x46 + 10.0*x47 + 6.8*x48 + 16.0*x49 + 38.0*x50 + 40.0*x51 + 0.5*x52 + 43.0*x53 + 50.0*x54 + 2.6*x55 + 84.0*x57 + 46.0*x58 + 61.3*x59 + 58.0*x60 + 45.0*x61 + x66 + 42.0*x77 + 48.0*x78 + 16.0*x79 + 12.0*x80 + 14.0*x81 + 11.0*x82 + 14.0*x83 + 21.0*x84 + 87.0*x85 + 18.0*x86 + 16.0*x87 + 7.0*x88 + 10.5*x89 + 7.0*x90 + 12.0*x91 + 36.0*x92 + 11.0*x93 + 15.0*x94 + 12.0*x95 + 5.0*x96 + 14.0*x97 + 5.0*x98 + 9.0*x99 + 7.0*x101 + 68.0*x102 + 98.0*x104 + 15.0*x105 + 14.0*x106 + 64.0*x107 + 12.0*x108 + 6.0*x109 + 18.0*x110 + 8.0*x111 + 9.0*x112 + 6.0*x117 + 3.0*x120 + 32.0*x124 + x126 + 1.3*x128 + 0.9*x129 + 1.3*x130 + 4.3*x131 + 0.5*x132 + 1.1*x133 + 0.4*x134 + 0.6*x135 + 0.6*x136 + 0.2*x137 + 0.9*x138 + 0.5*x139 + 4.0*x140 + 0.8*x141 + 1.3*x142 + x143 + 8.0*x144 + 10.0*x148 + 12.0*x149 + 13.0*x150 + 4.0*x151 + 3.0*x152 + 6.0*x153 + x156 + 14.0*x158 + 15.0*x159 + 18.0*x160 + 18.0*x161 + 20.0*x162 + 26.0*x163 + 22.0*x164 + 21.0*x165 + 25.0*x166 + 31.0*x167 + 28.0*x168 + 30.0*x169 + 35.0*x170 + 23.0*x171 + 20.0*x172 + 14.0*x173 + 14.0*x174 + 15.0*x175 + 5.0*x176 + 14.0*x177 + 11.0*x178 + 5.0*x179<= 50;
14.0*x0 + 12.0*x1 + 14.7*x2 + 4.0*x3 + 8.4*x4 + 0.8*x5 + 10.0*x6 + 100.0*x7 + 61.0*x8 + 41.0*x9 + 59.0*x10 + 321.0*x11 + 13.8*x12 + 1.6*x13 + 0.7*x14 + 8.0*x16 + 0.5*x17 + 34.0*x18 + 9.2*x19 + 151.0*x20 + 68.0*x21 + 93.7*x22 + 396.0*x23 + 70.0*x24 + 11.0*x25 + 58.0*x26 + 2.5*x27 + 5.2*x28 + 51.3*x29 + 24.0*x30 + 129.4*x31 + 20.4*x32 + 1.6*x33 + 36.0*x36 + 29.0*x37 + 36.0*x38 + 16.0*x39 + 29.0*x40 + 21.0*x41 + 36.0*x42 + 22.0*x43 + 151.0*x44 + 68.0*x45 + 93.7*x46 + 396.0*x47 + 70.0*x48 + 11.0*x49 + 58.0*x50 + 2.5*x51 + 5.2*x52 + 51.3*x53 + 24.0*x54 + 129.4*x55 + 19.0*x56 + 1.6*x57 + 9.2*x61 + 33.0*x64 + 220.0*x65 + 434.0*x66 + 17.0*x67 + 62.0*x68 + 8.0*x69 + 2.0*x94 + 0.2*x96 + 2.0*x109 + 18.5*x128 + 92.0*x129 + 144.9*x130 + 28.3*x131 + 16.0*x132 + 48.0*x133 + 3.3*x134 + 88.0*x135 + 60.0*x136 + 20.0*x137 + 74.4*x138 + 32.7*x139 + 40.0*x140 + 108.0*x141 + 14.0*x142<= 20;
6.0*x0 + 3.8*x1 + 4.7*x2 + 15.0*x3 + 0.1*x4 + 0.6*x5 + 15.0*x6 + 6.0*x7 + 7.0*x8 + 7.0*x9 + 12.0*x10 + 9.5*x11 + 8.4*x12 + 39.0*x13 + 0.4*x14 + 3.6*x15 + 9.5*x16 + 2.3*x17 + 3.0*x18 + 1.6*x19 + 6.3*x20 + 7.2*x21 + 11.0*x22 + 19.0*x23 + 2.0*x24 + 7.9*x25 + 12.0*x26 + 1.8*x27 + 2.0*x28 + 14.0*x29 + 2.6*x30 + 1.8*x31 + 3.9*x32 + 3.2*x33 + 2.6*x34 + 3.5*x35 + 45.0*x36 + 34.0*x37 + 228.0*x38 + 192.0*x39 + 49.0*x40 + 193.0*x41 + 40.0*x42 + 68.0*x43 + 6.3*x44 + 7.2*x45 + 11.0*x46 + 19.0*x47 + 2.0*x48 + 7.9*x49 + 12.0*x50 + 1.8*x51 + 2.0*x52 + 14.0*x53 + 2.6*x54 + 1.8*x55 + 129.0*x56 + 3.2*x57 + 2.6*x58 + 3.5*x59 + 2.6*x60 + 4.9*x61 + 3.0*x64 + 7.0*x65 + 12.0*x66 + 2.0*x67 + 7.0*x68 + 2.0*x69 + 318.0*x77 + 492.0*x78 + 40.0*x79 + 120.0*x80 + 55.0*x82 + 42.0*x83 + 210.0*x84 + 1160.0*x85 + 90.0*x86 + 80.0*x87 + 35.0*x88 + 2.45*x90 + 80.0*x91 + 66.0*x93 + 480.0*x94 + 48.0*x95 + 40.0*x96 + 70.0*x98 + 24.0*x101 + 187.0*x102 + 238.0*x104 + 200.0*x109 + 30.0*x120 + 60.0*x121 + 1120.0*x124 + 0.5*x128 + 2.1*x129 + 4.6*x130 + 2.0*x131 + 0.8*x132 + 0.9*x133 + 0.4*x134 + 1.1*x135 + 1.7*x136 + 0.2*x137 + 1.7*x138 + 1.7*x139 + 1.9*x140 + 1.8*x141 + 2.5*x142<= 2500;
21.0*x0 + 8.0*x1 + 11.4*x2 + 15.0*x3 + 5.1*x4 + 4.0*x5 + 25.0*x6 + 712.0*x7 + 1312.0*x8 + 725.0*x9 + 1130.0*x10 + 28.0*x11 + 17.0*x12 + 21.0*x13 + 1.1*x14 + 7.8*x15 + 5.5*x16 + 5.5*x17 + 7.8*x18 + 5.2*x19 + 8.2*x20 + 22.0*x21 + 8.6*x22 + 18.0*x23 + 6.4*x24 + 11.0*x25 + 37.0*x26 + 11.0*x27 + 0.6*x28 + 10.0*x29 + 4.3*x30 + 3.3*x31 + 46.0*x32 + 44.0*x33 + 16.4*x34 + 21.9*x35 + 32.0*x36 + 21.0*x37 + 12.0*x38 + 8.1*x39 + 45.0*x40 + 45.0*x41 + 11.0*x42 + 12.0*x43 + 8.2*x44 + 22.0*x45 + 8.6*x46 + 18.0*x47 + 6.4*x48 + 11.0*x49 + 37.0*x50 + 11.0*x51 + 0.6*x52 + 10.0*x53 + 4.3*x54 + 3.3*x55 + 3210.0*x56 + 44.0*x57 + 16.4*x58 + 21.9*x59 + 21.0*x60 + 19.0*x61 + 1403.0*x64 + 811.0*x65 + 1518.0*x66 + 737.0*x67 + 1537.0*x68 + 96.0*x69 + 12.0*x77 + 12.0*x78 + 6.0*x79 + 16.8*x80 + 3.5*x81 + 12.1*x82 + 10.5*x83 + 7.0*x84 + 31.9*x85 + 5.4*x86 + 4.8*x87 + 1.4*x88 + 4.4*x91 + 4.4*x93 + 0.4*x94 + 6.0*x95 + 2.3*x96 + 2.8*x97 + 0.9*x98 + 3.4*x99 + 0.4*x101 + 17.0*x102 + 14.0*x104 + 7.5*x105 + 0.9*x109 + 4.0*x124 + 0.6*x129 + x130 + 10.0*x131 + 1.2*x132 + 1.8*x133 + x134 + 2.1*x135 + 0.6*x136 + 2.0*x137 + 2.8*x138 + 2.2*x139 + 6.1*x140 + 1.2*x141 + 3.1*x142<= 45;
498.0*x0 + 381.0*x1 + 312.0*x2 + 240.0*x3 + 97.0*x4 + 256.0*x5 + 158.0*x6 + 93.9*x7 + 98.2*x8 + 99.1*x9 + 106.7*x10 + 1220.0*x11 + 759.0*x12 + 327.0*x13 + 69.0*x14 + 59.0*x15 + 60.0*x16 + 200.0*x17 + 1342.0*x18 + 677.0*x19 + 295.0*x20 + 885.0*x21 + 261.0*x22 + 613.0*x23 + 287.0*x24 + 341.0*x25 + 472.0*x26 + 328.0*x27 + 37.0*x28 + 1457.0*x29 + 872.0*x30 + 230.0*x31 + 1789.0*x32 + 948.0*x33 + 572.0*x34 + 762.7*x35 + 18.0*x36 + 18.0*x37 + 27.0*x38 + 31.0*x39 + 13.0*x40 + 7.2*x41 + 54.0*x42 + 24.0*x43 + 295.0*x44 + 885.0*x45 + 261.0*x46 + 613.0*x47 + 287.0*x48 + 341.0*x49 + 472.0*x50 + 328.0*x51 + 37.0*x52 + 1457.0*x53 + 872.0*x54 + 230.0*x55 + 27.0*x56 + 948.0*x57 + 572.0*x58 + 762.7*x59 + 698.0*x60 + 38.0*x61 + 76.0*x62 + 76.0*x63 + 80.9*x64 + 31.3*x65 + 33.3*x66 + 72.5*x67 + 84.9*x68 + 76.5*x69 + 18.0*x70 + 27.0*x71 + 36.0*x72 + 45.0*x73 + 45.0*x74 + 44.0*x75 + 48.0*x76<= 2400;
 + 420.0*x77 + 438.0*x78 + 280.0*x79 + 600.0*x80 + 473.0*x82 + 266.0*x83 + 210.0*x84 + 3150.0*x86 + 2800.0*x87 + 175.0*x88 + 200.0*x91 + 1903.0*x93 + 600.0*x94 + 126.0*x95 + 140.0*x96 + 2170.0*x97 + 180.0*x98 + 130.0*x99 + 105.0*x101 + 1530.0*x102 + 2590.0*x104 + 360.0*x109 + 220.0*x112 + 660.0*x120 + 810.0*x121 + 790.0*x123 + 800.0*x124 + 24.0*x125 + 422.0*x128 + 166.0*x129 + 232.0*x130 + 926.0*x131 + 195.0*x132 + 292.0*x133 + 94.0*x134 + 138.0*x135 + 131.0*x136 + 60.0*x137 + 116.0*x138 + 68.0*x139 + 975.0*x140 + 215.0*x141 + 295.0*x142 + 225.0*x143 + 150.0*x144 + 165.0*x145 + 205.0*x146 + 280.0*x147 + 150.0*x148 + 195.0*x149 + 175.0*x150 + 90.0*x151 + 95.0*x152 + 70.0*x153 + 25.0*x154 + 45.0*x155 + 45.0*x156 + 45.0*x157 + 25.0*x158<= 400;
 + x4 + x5 + x7 + x13 + x15 + x16 + x17 + x18 + x19 + x20 + x22 + x24 + x28 + x31 + x40 + x41 + x44 + x46 + x48 + x52 + x55 + x62 + x64 + x69 + x77 + x78 + x79 + x80 + x81 + x82 + x83 + x86 + x87 + x89 + x90 + x93 + x96 + x97 + x99 + x103 + x104 + x105 + x106 + x109 + x113 + x114 + x115 + x116 + x117 + x118 + x119 + x120 + x121 + x122 + x123 + x124 + x125 + x127 + x128 + x129 + x130 + x131 + x132 + x133 + x134 + x135 + x136 + x137 + x138 + x139 + x140 + x141 + x142 + x143 + x145 + x146 + x147 + x154 + x155 + x156 + x157 + x172 + x173 + x174 + x175 + x177 + x179<= 180;
 + x1 + x4 + x5 + x7 + x13 + x15 + x16 + x17 + x18 + x19 + x20 + x21 + x22 + x24 + x28 + x31 + x39 + x40 + x41 + x44 + x45 + x46 + x48 + x52 + x55 + x62 + x63 + x64 + x69 + x73 + x77 + x78 + x79 + x80 + x81 + x82 + x83 + x84 + x85 + x86 + x87 + x89 + x90 + x91 + x93 + x94 + x95 + x96 + x97 + x98 + x99 + x101 + x102 + x103 + x104 + x105 + x106 + x107 + x108 + x109 + x110 + x111 + x112 + x113 + x114 + x115 + x116 + x117 + x118 + x119 + x120 + x121 + x122 + x123 + x124 + x125 + x126 + x127 + x128 + x129 + x130 + x131 + x132 + x133 + x134 + x135 + x136 + x137 + x138 + x139 + x140 + x141 + x142 + x143 + x144 + x145 + x146 + x147 + x148 + x149 + x150 + x151 + x152 + x153 + x154 + x155 + x156 + x157 + x158 + x159 + x162 + x165 + x171 + x172 + x173 + x174 + x175 + x177 + x179<= 180;
x0 + x1 + x2 + x3 + x4 + x5 + x6 + x7 + x8 + x9 + x10 + x11 + x12 + x13 + x14 + x15 + x16 + x17 + x18 + x19 + x20 + x21 + x22 + x23 + x24 + x25 + x26 + x27 + x28 + x29 + x30 + x31 + x32 + x33 + x34 + x35 + x36 + x37 + x38 + x39 + x40 + x41 + x42 + x43 + x44 + x45 + x46 + x47 + x48 + x49 + x50 + x51 + x52 + x53 + x54 + x55 + x56 + x57 + x58 + x59 + x60 + x61 + x62 + x63 + x64 + x65 + x66 + x67 + x68 + x69 + x70 + x71 + x72 + x73 + x74 + x75 + x76<= 3;

//Make all variable type integers :
int x0, x1, x2, x3, x4, x5, x6, x7, x8, x9, x10, x11, x12, x13, x14, x15, x16, x17, x18, x19, x20, x21, x22, x23, x24, x25, x26, x27, x28, x29, x30, x31, x32, x33, x34, x35, x36, x37, x38, x39, x40, x41, x42, x43, x44, x45, x46, x47, x48, x49, x50, x51, x52, x53, x54, x55, x56, x57, x58, x59, x60, x61, x62, x63, x64, x65, x66, x67, x68, x69, x70, x71, x72, x73, x74, x75, x76, x77, x78, x79, x80, x81, x82, x83, x84, x85, x86, x87, x88, x89, x90, x91, x92, x93, x94, x95, x96, x97, x98, x99, x100, x101, x102, x103, x104, x105, x106, x107, x108, x109, x110, x111, x112, x113, x114, x115, x116, x117, x118, x119, x120, x121, x122, x123, x124, x125, x126, x127, x128, x129, x130, x131, x132, x133, x134, x135, x136, x137, x138, x139, x140, x141, x142, x143, x144, x145, x146, x147, x148, x149, x150, x151, x152, x153, x154, x155, x156, x157, x158, x159, x160, x161, x162, x163, x164, x165, x166, x167, x168, x169, x170, x171, x172, x173, x174, x175, x176, x177, x178, x179;
